unsat
(:cnf-encoding-aux-vars   21
 :eliminated-applications 4
 :eliminated-vars         59
 :max-memory              18.34
 :memory                  18.13
 :nlsat-conflicts         4
 :nlsat-decisions         6
 :nlsat-propagations      12
 :num-allocs              56044
 :rlimit-count            30517
 :time                    0.01
 :total-time              0.02)
